164
127
185
199
142
116
142
158
127
162
146
147
178
199
120
149
147
160
171
138
126
170
136
173
149
189
110
113
195
114
101
127
150
102
111
168
196
163
103
153
100
136
121
138
175
191
151
114
104
159
192
192
164
133
121
197
143
153
191
183
187
136
162
164
119
130
179
154
132
163
170
157
177
179
137
100
131
148
169
124
192
159
164
123
177
121
123
114
145
126
152
147
173
125
188
182
171
119
156
105
198
129
158
159
105
121
107
129
113
108
102
130
192
139
180
132
168
168
159
174
198
101
103
162
180
141
114
187
112
175
123
141
122
116
200
131
137
116
160
146
177
158
135
151
154
128
185
176
100
130
177
200
188
110
173
143
122
180
188
135
100
136
181
175
149
197
189
190
200
124
171
132
166
199
165
180
104
131
158
136
175
186
139
176
178
155
144
117
129
186
113
197
126
178
119
163
146
168
125
102
